Version identifier: 22.1.0.0 | 2022-03-09 | 1a383f8ce
CPXPARAM_Threads                                 1
CPXPARAM_MIP_Strategy_VariableSelect             3
CPXPARAM_TimeLimit                               599.99998513100002
1 of 1 MIP starts provided solutions.
MIP start 'm1' defined initial solution with objective 1.0000.
Tried aggregator 1 time.
MIP Presolve eliminated 12 rows and 0 columns.
MIP Presolve modified 81 coefficients.
Reduced MIP has 514 rows, 2600 columns, and 29854 nonzeros.
Reduced MIP has 2600 binaries, 0 generals, 0 SOSs, and 0 indicators.
Presolve time = 0.04 sec. (51.75 ticks)
Probing time = 0.01 sec. (9.53 ticks)
Tried aggregator 1 time.
Detecting symmetries...
MIP Presolve modified 9 coefficients.
Reduced MIP has 514 rows, 2600 columns, and 30234 nonzeros.
Reduced MIP has 2600 binaries, 0 generals, 0 SOSs, and 0 indicators.
Presolve time = 0.03 sec. (31.75 ticks)
Probing time = 0.01 sec. (9.60 ticks)
Clique table members: 300.
MIP emphasis: balance optimality and feasibility.
MIP search method: dynamic search.
Parallel mode: none, using 1 thread.
Root relaxation solution time = 0.19 sec. (228.80 ticks)

        Nodes                                         Cuts/
   Node  Left     Objective  IInf  Best Integer    Best Bound    ItCnt     Gap

*     0+    0                            1.0000     5050.0000              --- 
      0     0      100.0000   383        1.0000      100.0000     1942     --- 
*     0+    0                           99.0000      100.0000             1.01%
      0     2      100.0000    89       99.0000      100.0000     1942    1.01%
Elapsed time = 2.06 sec. (2248.80 ticks, tree = 0.01 MB, solutions = 2)
      1     3      100.0000   272       99.0000      100.0000     4047    1.01%
      2     4      100.0000   203       99.0000      100.0000     5349    1.01%
      4     6      100.0000   151       99.0000      100.0000     5737    1.01%
      7     9      100.0000   141       99.0000      100.0000     6047    1.01%
      9    11      100.0000   129       99.0000      100.0000     6480    1.01%
     11    13      100.0000   124       99.0000      100.0000     7426    1.01%
     12    14      100.0000    85       99.0000      100.0000    10280    1.01%
     14    16      100.0000   195       99.0000      100.0000    11586    1.01%
     16    18      100.0000    78       99.0000      100.0000    12506    1.01%
*    19     1      integral     0      100.0000      100.0000    15037    0.00%

Root node processing (before b&c):
  Real time             =    2.05 sec. (2237.29 ticks)
Sequential b&c:
  Real time             =    2.83 sec. (3229.69 ticks)
                          ------------
Total (root+branch&cut) =    4.87 sec. (5466.98 ticks)
19
12
0
4
15
16
4
18
0
4
2
10
1
12
0
19
9
10
4
15
24
17
12
10
17
23
0
4
12
8
14
12
0
1
9
16
4
5
1
17
13
4
6
7
1
22
3
4
6
3
21
4
7
6
4
16
15
4
10
9
19
10
15
4
8
11
1
0
12
1
20
1
17
7
1
19
5
1
6
3
14
6
7
6
1
13
4
17
7
6
1
24
6
18
8
4
11
0
4
9
Primal:	100
Dual:	100
Status:	Optimal
Time:	4.87
